(set-info :smt-lib-version 2.6)
(set-logic QF_SLIA)
(set-info :source |
Generated by: Dmitry Blotsky1, Federico Mora, Murphy Berzish, Yunhui Zheng, Ifaz Kabir, Vijay Ganesh, Zhengyang Lu
Generated on: 2018-01-24
Generator: StringFuzz
Application: Evaluate string solvers
Target solver: Z3str3, CVC4, Z3str2, Norn
Publications: Blotsky, D., Mora, F., Berzish, M., Zheng, Y., Kabir, I., & Ganesh, V. (2018). Stringfuzz: A fuzzer for string solvers. In CAV 2018.
Description: transformed by StringFuzz, a modular string and regex fuzzer, from an industrial benchmark
|)
(set-info :license "https://creativecommons.org/licenses/by/4.0/")
(set-info :category "random")
(set-info :status unknown)

(declare-const x String)
(declare-const y String)
(assert (str.in_re x (re.+ (re.union (str.to_re "Y7~a'.</zvX*Ek,)'\t'o@") (str.to_re "33")))))
(assert (= 22 (str.len x)))
(assert (not (= x "axM.~:voThRMdq9e>M+!aWDbdzE""'\x0c'.PNP2ERoUdW+V6vs#kxflz61urYgRa6~m6@3OH=-N\\KecdV]nR:'\x0b'+`xK?'\r'' '' '")))
(assert (not (= x "6d7d-0c@TuL>;\\H'\n'nz0^b,N/s,T>F""/'/(PW4=b)M?HS.~ntGili2n@F'\r'J^~aab4'\t'EE+m&lZLBPcVLv?;Rj.i_]qc|>B|Po8Cb2v.' ''\x0b'119qj@'\t'7'\x0b''\x0c'YAINY&[X_#b{(ELhfdA&%0x`^TE")))
(check-sat)

(exit)
